; benchmark generated from python API
(set-info :status unknown)
(declare-fun x_days () Int)
(assert
 (>= x_days (- 36525)))
(assert
 (<= x_days 36525))
(assert
 (>= x_days 7303))
(assert
 (<= x_days 7305))
(assert
 (let (($x29 (or (and (= (mod 2000 4) 0) (and (distinct (mod 2000 100) 0) true)) (= (mod 2000 400) 0))))
(let ((?x36 (ite (= 3 2) (ite $x29 31 31) (ite (= 3 1) (ite $x29 0 0) 0))))
(let ((?x40 (ite $x29 60 59)))
(let ((?x41 (ite (= 3 3) ?x40 ?x36)))
(let ((?x46 (ite (= 3 4) (ite $x29 91 90) ?x41)))
(let ((?x52 (ite (= 3 5) (ite $x29 121 120) ?x46)))
(let ((?x58 (ite (= 3 6) (ite $x29 152 151) ?x52)))
(let ((?x64 (ite (= 3 7) (ite $x29 182 181) ?x58)))
(let ((?x70 (ite (= 3 8) (ite $x29 213 212) ?x64)))
(let ((?x76 (ite (= 3 9) (ite $x29 244 243) ?x70)))
(let ((?x82 (ite (= 3 10) (ite $x29 274 273) ?x76)))
(let ((?x88 (ite (= 3 11) (ite $x29 305 304) ?x82)))
(let ((?x16 (- (+ (* 365 (- 2000 1)) (div (- 2000 1) 4)) (div (- 2000 1) 100))))
(let ((?x95 (+ (+ ?x16 (div (- 2000 1) 400)) (ite (= 3 12) (ite $x29 335 334) ?x88))))
(let ((?x97 (+ ?x95 (- 1 1))))
(let ((?x246 (+ x_days ?x97)))
(let ((?x165 (mod ?x246 146097)))
(let ((?x628 (div ?x165 36524)))
(let ((?x279 (ite (<= 4 ?x628) 3 ?x628)))
(let ((?x276 (- ?x165 (* ?x279 36524))))
(let ((?x162 (mod ?x276 1461)))
(let ((?x1513 (div ?x162 365)))
(let ((?x1616 (ite (<= 4 ?x1513) 3 ?x1513)))
(let ((?x1102 (+ (+ (* (div ?x246 146097) 400) (* ?x279 100)) (* (div ?x276 1461) 4))))
(let ((?x1324 (+ (+ ?x1102 ?x1616) 1)))
(let (($x1252 (or (and (= (mod ?x1324 4) 0) (and (distinct (mod ?x1324 100) 0) true)) (= (mod ?x1324 400) 0))))
(let ((?x1615 (- ?x162 (* ?x1616 365))))
(let ((?x832 (ite $x1252 31 31)))
(let (($x681 (>= ?x1615 ?x832)))
(let ((?x340 (ite $x681 (+ (- ?x1615 ?x832) 1) (+ (- ?x1615 (ite $x1252 0 0)) 1))))
(let ((?x1533 (ite $x1252 60 59)))
(let (($x129 (>= ?x1615 ?x1533)))
(let ((?x818 (ite $x1252 91 90)))
(let (($x691 (>= ?x1615 ?x818)))
(let ((?x229 (ite $x691 (+ (- ?x1615 ?x818) 1) (ite $x129 (+ (- ?x1615 ?x1533) 1) ?x340))))
(let ((?x461 (ite $x1252 121 120)))
(let (($x143 (>= ?x1615 ?x461)))
(let ((?x611 (ite $x1252 152 151)))
(let (($x309 (>= ?x1615 ?x611)))
(let ((?x284 (ite $x309 (+ (- ?x1615 ?x611) 1) (ite $x143 (+ (- ?x1615 ?x461) 1) ?x229))))
(let ((?x1228 (ite $x1252 182 181)))
(let (($x419 (>= ?x1615 ?x1228)))
(let ((?x1307 (ite $x1252 213 212)))
(let (($x1139 (>= ?x1615 ?x1307)))
(let ((?x1128 (ite $x1139 (+ (- ?x1615 ?x1307) 1) (ite $x419 (+ (- ?x1615 ?x1228) 1) ?x284))))
(let ((?x526 (ite $x1252 244 243)))
(let (($x1541 (>= ?x1615 ?x526)))
(let ((?x231 (ite $x1252 274 273)))
(let (($x128 (>= ?x1615 ?x231)))
(let ((?x638 (ite $x128 (+ (- ?x1615 ?x231) 1) (ite $x1541 (+ (- ?x1615 ?x526) 1) ?x1128))))
(let ((?x1451 (ite $x1252 305 304)))
(let (($x1291 (>= ?x1615 ?x1451)))
(let ((?x495 (ite $x1252 335 334)))
(let (($x518 (>= ?x1615 ?x495)))
(let ((?x176 (ite $x518 (+ (- ?x1615 ?x495) 1) (ite $x1291 (+ (- ?x1615 ?x1451) 1) ?x638))))
(let ((?x183 (ite $x143 5 (ite $x691 4 (ite $x129 3 (ite $x681 2 1))))))
(let ((?x641 (ite $x1541 9 (ite $x1139 8 (ite $x419 7 (ite $x309 6 ?x183))))))
(let ((?x343 (- (+ (ite $x518 12 (ite $x1291 11 (ite $x128 10 ?x641))) 0) 1)))
(let ((?x470 (+ (mod ?x343 12) 1)))
(let ((?x643 (ite (or (= ?x470 4) (= ?x470 6) (= ?x470 9) (= ?x470 11)) 30 31)))
(let (($x830 (and (= (mod (+ (+ ?x1324 0) (div ?x343 12)) 4) 0) (and (distinct (mod (+ (+ ?x1324 0) (div ?x343 12)) 100) 0) true))))
(let (($x447 (or $x830 (= (mod (+ (+ ?x1324 0) (div ?x343 12)) 400) 0))))
(let ((?x311 (ite (= ?x470 2) (ite $x447 29 28) ?x643)))
(let ((?x1627 (ite (= 2 ?x470) (ite $x447 31 31) (ite (= 1 ?x470) (ite $x447 0 0) 0))))
(let ((?x156 (ite (= 4 ?x470) (ite $x447 91 90) (ite (= 3 ?x470) (ite $x447 60 59) ?x1627))))
(let ((?x550 (ite (= 6 ?x470) (ite $x447 152 151) (ite (= 5 ?x470) (ite $x447 121 120) ?x156))))
(let ((?x216 (ite (= 8 ?x470) (ite $x447 213 212) (ite (= 7 ?x470) (ite $x447 182 181) ?x550))))
(let ((?x150 (ite (= 10 ?x470) (ite $x447 274 273) (ite (= 9 ?x470) (ite $x447 244 243) ?x216))))
(let ((?x725 (ite (= 12 ?x470) (ite $x447 335 334) (ite (= 11 ?x470) (ite $x447 305 304) ?x150))))
(let ((?x204 (+ (* 365 (- (+ (+ ?x1324 0) (div ?x343 12)) 1)) (div (- (+ (+ ?x1324 0) (div ?x343 12)) 1) 4))))
(let ((?x160 (+ (- ?x204 (div (- (+ (+ ?x1324 0) (div ?x343 12)) 1) 100)) (div (- (+ (+ ?x1324 0) (div ?x343 12)) 1) 400))))
(let ((?x1268 (+ (+ ?x160 ?x725) (- (ite (> 1 ?x176) 1 (ite (> ?x176 ?x311) ?x311 ?x176)) 1))))
(= (- (+ ?x1268 1) ?x97) 7305))))))))))))))))))))))))))))))))))))))))))))))))))))))))))))))))))))))))))
(check-sat)
